
(set-logic LIA)
(synth-fun int_bvnand_1 ((s Int) (t Int)) Int
(
  (I Int) (Ic Int) (B Bool)
)
(
  (I Int  (
       Ic
       (+ I I )
       (* Ic I)
       (ite B I I)
    )
  )
  (Ic Int (
  s
  t
    0
1
  )
)
  (B Bool (
       (= I I)
       (>= I I)
       (not B)
     )
  )
)
)
(constraint (= (int_bvnand_1 0 0) 1))
(constraint (= (int_bvnand_1 0 1) 1))
(constraint (= (int_bvnand_1 1 0) 1))
(constraint (= (int_bvnand_1 1 1) 0))
(check-synth)
